<number of tasks>
50

<cycle time>
1000

<order strength>
0.904


<task times>
1 100
2 41
3 227
4 114
5 66
6 179
7 215
8 228
9 153
10 220
11 55
12 194
13 170
14 28
15 56
16 272
17 23
18 122
19 245
20 72
21 88
22 183
23 206
24 154
25 111
26 60
27 21
28 129
29 243
30 74
31 191
32 58
33 190
34 34
35 23
36 188
37 151
38 149
39 84
40 111
41 81
42 104
43 68
44 81
45 205
46 104
47 119
48 237
49 200
50 37

<precedence relations>
1,3
1,4
1,5
2,3
2,4
2,5
3,6
3,7
3,8
4,6
4,7
4,8
5,6
5,7
5,8
6,9
6,10
6,11
6,12
7,9
7,10
7,11
7,12
8,9
8,10
8,11
8,12
9,13
9,14
10,13
10,14
11,13
11,14
12,13
13,15
13,16
13,17
14,15
15,18
15,19
15,20
16,49
16,50
17,18
17,19
17,20
18,22
18,24
19,21
19,22
19,23
19,24
20,21
20,22
20,23
20,24
21,25
21,26
21,27
22,25
22,26
22,27
23,25
23,26
24,25
24,26
24,27
25,28
25,29
26,28
26,29
27,28
27,29
28,30
28,31
29,30
29,31
30,32
30,33
30,34
31,32
31,33
31,34
32,35
32,36
32,37
32,38
33,35
33,36
34,36
34,44
34,45
35,39
35,40
36,50
37,39
37,41
38,39
39,42
39,43
40,41
40,43
41,44
41,45
42,44
42,45
43,45
44,46
44,47
44,48
45,46
45,47
46,50
47,49
48,49

<end>
